Minimize
  - 7 y_0 - 17 y_1 - 17 y_2 - 6 y_3 - 19 y_4 - 3 y_5 - 18 y_6 - 8 y_7
   - 17 y_8 - 16 y_9 - 9 y_10 - 13 y_11 - 11 y_12 - 10 y_13 - 14 y_14
   - 19 y_15 - 3 y_16 - 12 y_17 - 8 y_18 - 12 y_19 - 9 y_20 - 11 y_21
   - 12 y_22 - 18 y_23 - 5 y_24 - 24 y_25 - 23 y_26 - 14 y_27 - y_28
   - 15 y_29 - 12 y_30 - 13 y_31 - 13 y_32 - 5 y_33 - 17 y_34 - 7 y_35
   - 13 y_36 - 11 y_37 - 15 y_38 - 13 y_39 - 8 y_40 - 17 y_41 - 5 y_42
   - 6 y_43 - 19 y_44 - 15 y_45 - 20 y_46 - 22 y_47 - 2 y_48 - 13 y_49
   - 10 y_50 - 22 y_51 - 19 y_52 - 14 y_53 - 14 y_54 - 16 y_55 - 16 y_56
   - 19 y_57 - 17 y_58 - 17 y_59 - 21 y_60 - 8 y_61 - 10 y_62 - 16 y_63
   - 11 y_64 - 19 y_65 - 14 y_66 - 12 y_67 - 19 y_68 - 7 y_69 - 22 y_70
   - 10 y_71 - 14 y_72 - 13 y_73 - 14 y_74 - 3 y_75 - 14 y_76 - 4 y_77
   - 13 y_78 - 13 y_79 - 5 y_80 - 15 y_81 - 5 y_82 - 9 y_83 - 20 y_84
   - 7 y_85 - 11 y_86 - 15 y_87 - 10 y_88 - 13 y_89 - 15 y_90 - 5 y_91
   - 23 y_92 - 12 y_93 - 15 y_94 - 17 y_95 - 19 y_96 - 19 y_98 - 17 y_99
   + 1290 Constant
Subject To
 c_0: y_99 = 1
 c_1_0: y_0 + y_35 + y_42 >= 1
 c_1_1: y_1 + y_58 >= 1
 c_1_2: y_2 >= 1
 c_1_3: y_3 + y_7 + y_24 + y_33 + y_43 >= 1
 c_1_4: y_4 + y_15 + y_23 + y_34 + y_41 + y_68 >= 1
 c_1_5: y_5 + y_16 + y_48 + y_75 + y_77 >= 1
 c_1_6: y_6 + y_8 + y_44 >= 1
 c_1_7: y_3 + y_7 + y_43 >= 1
 c_1_8: y_6 + y_8 + y_29 + y_44 + y_45 + y_81 >= 1
 c_1_9: y_9 + y_38 >= 1
 c_1_10: y_10 + y_20 + y_37 + y_62 + y_86 >= 1
 c_1_11: y_11 + y_27 + y_36 + y_49 + y_76 + y_78 + y_81 >= 1
 c_1_12: y_12 + y_64 + y_67 + y_71 + y_93 >= 1
 c_1_13: y_13 + y_19 + y_40 + y_50 + y_61 >= 1
 c_1_14: y_14 + y_27 + y_31 + y_36 + y_54 + y_72 + y_74 + y_90 >= 1
 c_1_15: y_4 + y_15 + y_23 + y_68 >= 1
 c_1_16: y_5 + y_16 + y_24 + y_48 >= 1
 c_1_17: y_17 >= 1
 c_1_18: y_18 + y_61 + y_85 >= 1
 c_1_19: y_13 + y_19 + y_50 + y_78 + y_89 >= 1
 c_1_20: y_10 + y_20 + y_35 + y_50 + y_83 >= 1
 c_1_21: y_21 + y_30 + y_39 + y_67 + y_88 >= 1
 c_1_22: y_22 + y_37 + y_86 >= 1
 c_1_23: y_4 + y_15 + y_23 + y_41 + y_59 + y_68 >= 1
 c_1_24: y_3 + y_16 + y_24 + y_33 + y_82 + y_91 >= 1
 c_1_25: y_25 + y_51 >= 1
 c_1_26: y_26 + y_47 + y_92 >= 1
 c_1_27: y_11 + y_14 + y_27 + y_31 + y_36 + y_49 + y_76 + y_81 >= 1
 c_1_28: y_28 + y_48 + y_75 + y_97 >= 1
 c_1_29: y_8 + y_29 + y_45 + y_81 >= 1
 c_1_30: y_21 + y_30 + y_39 + y_53 >= 1
 c_1_31: y_14 + y_27 + y_31 + y_36 + y_54 + y_72 + y_74 >= 1
 c_1_32: y_32 + y_67 + y_79 + y_93 >= 1
 c_1_33: y_3 + y_24 + y_33 + y_43 >= 1
 c_1_34: y_4 + y_34 + y_41 + y_56 >= 1
 c_1_35: y_0 + y_20 + y_35 + y_83 >= 1
 c_1_36: y_11 + y_14 + y_27 + y_31 + y_36 + y_49 + y_76 >= 1
 c_1_37: y_10 + y_22 + y_37 + y_86 >= 1
 c_1_38: y_9 + y_38 + y_53 + y_72 + y_74 + y_87 + y_90 >= 1
 c_1_39: y_21 + y_30 + y_39 + y_53 + y_67 + y_87 >= 1
 c_1_40: y_13 + y_40 + y_50 + y_61 >= 1
 c_1_41: y_4 + y_23 + y_34 + y_41 + y_56 + y_59 >= 1
 c_1_42: y_0 + y_42 + y_77 + y_80 >= 1
 c_1_43: y_3 + y_7 + y_33 + y_43 >= 1
 c_1_44: y_6 + y_8 + y_44 >= 1
 c_1_45: y_8 + y_29 + y_45 + y_76 + y_81 >= 1
 c_1_46: y_46 + y_57 + y_98 >= 1
 c_1_47: y_26 + y_47 >= 1
 c_1_48: y_5 + y_16 + y_28 + y_48 + y_75 >= 1
 c_1_49: y_11 + y_27 + y_36 + y_49 + y_76 + y_78 + y_81 + y_89 >= 1
 c_1_50: y_13 + y_19 + y_20 + y_40 + y_50 + y_83 >= 1
 c_1_51: y_25 + y_51 + y_60 >= 1
 c_1_52: y_52 + y_58 + y_96 >= 1
 c_1_53: y_30 + y_38 + y_39 + y_53 + y_72 + y_74 + y_87 >= 1
 c_1_54: y_14 + y_31 + y_54 + y_72 + y_74 + y_90 >= 1
 c_1_55: y_55 + y_63 + y_90 + y_95 >= 1
 c_1_56: y_34 + y_41 + y_56 >= 1
 c_1_57: y_46 + y_57 + y_98 >= 1
 c_1_58: y_1 + y_52 + y_58 >= 1
 c_1_59: y_23 + y_41 + y_59 + y_94 >= 1
 c_1_60: y_51 + y_60 >= 1
 c_1_61: y_13 + y_18 + y_40 + y_61 >= 1
 c_1_62: y_10 + y_62 >= 1
 c_1_63: y_55 + y_63 + y_90 + y_95 + y_99 >= 1
 c_1_64: y_12 + y_64 + y_67 + y_71 + y_93 >= 1
 c_1_65: y_65 >= 1
 c_1_66: y_66 + y_73 + y_94 >= 1
 c_1_67: y_12 + y_21 + y_32 + y_39 + y_64 + y_67 + y_79 + y_93 >= 1
 c_1_68: y_4 + y_15 + y_23 + y_68 >= 1
 c_1_69: y_69 >= 1
 c_1_70: y_70 >= 1
 c_1_71: y_12 + y_64 + y_71 + y_88 >= 1
 c_1_72: y_14 + y_31 + y_38 + y_53 + y_54 + y_72 + y_74 + y_90 >= 1
 c_1_73: y_66 + y_73 + y_94 >= 1
 c_1_74: y_14 + y_31 + y_38 + y_53 + y_54 + y_72 + y_74 + y_90 >= 1
 c_1_75: y_5 + y_28 + y_48 + y_75 + y_77 + y_80 >= 1
 c_1_76: y_11 + y_27 + y_36 + y_45 + y_49 + y_76 + y_81 >= 1
 c_1_77: y_5 + y_42 + y_75 + y_77 + y_80 >= 1
 c_1_78: y_11 + y_19 + y_49 + y_78 + y_89 >= 1
 c_1_79: y_32 + y_67 + y_79 >= 1
 c_1_80: y_42 + y_75 + y_77 + y_80 >= 1
 c_1_81: y_8 + y_11 + y_27 + y_29 + y_45 + y_49 + y_76 + y_81 >= 1
 c_1_82: y_24 + y_82 + y_91 >= 1
 c_1_83: y_20 + y_35 + y_50 + y_83 >= 1
 c_1_84: y_84 >= 1
 c_1_85: y_18 + y_85 >= 1
 c_1_86: y_10 + y_22 + y_37 + y_86 >= 1
 c_1_87: y_38 + y_39 + y_53 + y_87 >= 1
 c_1_88: y_21 + y_71 + y_88 >= 1
 c_1_89: y_19 + y_49 + y_78 + y_89 >= 1
 c_1_90: y_14 + y_38 + y_54 + y_55 + y_63 + y_72 + y_74 + y_90 + y_99 >= 1
 c_1_91: y_24 + y_82 + y_91 >= 1
 c_1_92: y_26 + y_92 >= 1
 c_1_93: y_12 + y_32 + y_64 + y_67 + y_93 >= 1
 c_1_94: y_59 + y_66 + y_73 + y_94 >= 1
 c_1_95: y_55 + y_63 + y_95 + y_99 >= 1
 c_1_96: y_52 + y_96 >= 1
 c_1_97: y_28 + y_97 >= 1
 c_1_98: y_46 + y_57 + y_98 >= 1
 c_1_99: y_63 + y_90 + y_95 + y_99 >= 1
Bounds
 Constant = 1
Binaries
 y_0 y_1 y_2 y_3 y_4 y_5 y_6 y_7 y_8 y_9 y_10 y_11 y_12 y_13 y_14 y_15 y_16
 y_17 y_18 y_19 y_20 y_21 y_22 y_23 y_24 y_25 y_26 y_27 y_28 y_29 y_30 y_31
 y_32 y_33 y_34 y_35 y_36 y_37 y_38 y_39 y_40 y_41 y_42 y_43 y_44 y_45 y_46
 y_47 y_48 y_49 y_50 y_51 y_52 y_53 y_54 y_55 y_56 y_57 y_58 y_59 y_60 y_61
 y_62 y_63 y_64 y_65 y_66 y_67 y_68 y_69 y_70 y_71 y_72 y_73 y_74 y_75 y_76
 y_77 y_78 y_79 y_80 y_81 y_82 y_83 y_84 y_85 y_86 y_87 y_88 y_89 y_90 y_91
 y_92 y_93 y_94 y_95 y_96 y_97 y_98 y_99
End
